
Gurobi 10.0.1 (win64) logging started Sat Sep 16 16:57:16 2023

Set parameter LogFile to value "./results-heuristic-start//log/Fattahi_setup_11_modified_old_makespan.log"
Gurobi Optimizer version 10.0.1 build v10.0.1rc0 (win64)

CPU model: AMD Ryzen 7 3700X 8-Core Processor, instruction set [SSE2|AVX|AVX2]
Thread count: 8 physical cores, 16 logical processors, using up to 16 threads

Optimize a model with 268 rows, 292 columns and 1064 nonzeros
Model fingerprint: 0x24a26e15
Variable types: 33 continuous, 259 integer (258 binary)
Coefficient statistics:
  Matrix range     [1e+00, 1e+06]
  Objective range  [1e+00, 1e+00]
  Bounds range     [1e+00, 1e+00]
  RHS range        [1e+00, 3e+06]

Warning: Completing partial solution with 244 unfixed non-continuous variables out of 259
User MIP start did not produce a new incumbent solution
User MIP start violates constraint initial_start_time_job0_stage0_machine2_constraint by 420.000000000

Presolve removed 45 rows and 173 columns
Presolve time: 0.00s
Presolved: 223 rows, 119 columns, 983 nonzeros
Variable types: 33 continuous, 86 integer (85 binary)
Found heuristic solution: objective 9898.0000000
Found heuristic solution: objective 8881.0000000
Found heuristic solution: objective 7740.0000000

Root relaxation: objective 4.008000e+03, 58 iterations, 0.00 seconds (0.00 work units)

    Nodes    |    Current Node    |     Objective Bounds      |     Work
 Expl Unexpl |  Obj  Depth IntInf | Incumbent    BestBd   Gap | It/Node Time

     0     0 4008.00000    0   23 7740.00000 4008.00000  48.2%     -    0s
Another try with MIP start
H    0     0                    6188.0000000 4008.00000  35.2%     -    0s
H    0     0                    6186.0000000 4008.00000  35.2%     -    0s
     0     0 4051.38398    0   27 6186.00000 4051.38398  34.5%     -    0s
H    0     0                    6185.0000000 4051.38398  34.5%     -    0s
     0     0 4051.38398    0   18 6185.00000 4051.38398  34.5%     -    0s
     0     0 4058.66774    0   20 6185.00000 4058.66774  34.4%     -    0s
     0     0 4058.66774    0   20 6185.00000 4058.66774  34.4%     -    0s
     0     0 4059.00000    0   20 6185.00000 4059.00000  34.4%     -    0s
H    0     0                    6184.0000000 4059.00000  34.4%     -    0s
H    0     0                    6142.0000000 4059.00000  33.9%     -    0s
     0     0 4059.00000    0   19 6142.00000 4059.00000  33.9%     -    0s
     0     0 4059.09755    0   19 6142.00000 4059.09755  33.9%     -    0s
     0     0 4059.16793    0   18 6142.00000 4059.16793  33.9%     -    0s
     0     0 4059.16793    0   18 6142.00000 4059.16793  33.9%     -    0s
     0     0 4068.27122    0   16 6142.00000 4068.27122  33.8%     -    0s
H    0     0                    6128.0000000 4068.27122  33.6%     -    0s
     0     0 4068.27122    0   20 6128.00000 4068.27122  33.6%     -    0s
     0     0 4068.27122    0   19 6128.00000 4068.27122  33.6%     -    0s
     0     0 4068.27122    0   19 6128.00000 4068.27122  33.6%     -    0s
     0     0 4068.27122    0   19 6128.00000 4068.27122  33.6%     -    0s
     0     0 4069.24942    0   18 6128.00000 4069.24942  33.6%     -    0s
     0     0 4069.24942    0   17 6128.00000 4069.24942  33.6%     -    0s
     0     0 4071.00000    0   19 6128.00000 4071.00000  33.6%     -    0s
     0     0 4073.41958    0   16 6128.00000 4073.41958  33.5%     -    0s
     0     0 4085.20548    0   22 6128.00000 4085.20548  33.3%     -    0s
H    0     0                    6011.0000000 4095.92392  31.9%     -    0s
H    0     0                    5848.0000000 4095.92392  30.0%     -    0s
     0     0 4095.92392    0   13 5848.00000 4095.92392  30.0%     -    0s
     0     0 4103.00000    0   18 5848.00000 4103.00000  29.8%     -    0s
     0     0 4103.00000    0   18 5848.00000 4103.00000  29.8%     -    0s
     0     0 4103.00000    0   15 5848.00000 4103.00000  29.8%     -    0s
     0     2 4103.00000    0   15 5848.00000 4103.00000  29.8%     -    0s
H  278   144                    5660.0000000 4118.01955  27.2%   9.1    0s
H 3459  1122                    5633.0000000 4189.65779  25.6%   0.5    0s
H11736  2255                    5620.0000000 4271.00000  24.0%   3.7    0s
*36057  5107              54    5602.0000000 4734.00000  15.5%   5.3    1s

Cutting planes:
  Learned: 3

Explored 63199 nodes (362136 simplex iterations) in 1.75 seconds (1.09 work units)
Thread count was 16 (of 16 available processors)

Solution count 10: 5602 5602 5620 ... 6184

Optimal solution found (tolerance 1.00e-04)
Best objective 5.602000000000e+03, best bound 5.602000000000e+03, gap 0.0000%
Warning: constraint name "precedence between 0,1 to 0,0 if x_[j,l,h,z,i]=1" has a space
Warning: constraint name "precedence between 0,1 to 0,0 if x_[j,l,h,z,i]=1" has a space
Warning: default constraint names used to write mps file
